1614582000
1614616200
1614668400
1614702600
1614754800
1614789000
1614841200
1614870000
1614927600
1614961800
1615186800
1615221000
1615273200
1615307400
1615359600
1615393800
1615446000
1615480200
1615532400
1615566600
1615791600
1615825800
1615878000
1615912200
1615964400
1615993200
1616050800
1616083200
1616137200
1616170800
1616396400
1616430600
1616482800
1616517000
1616569200
1616603400
1616655600
1616689800
1616742000
1616774400
1616997600
1617031800
1617084000
1617118200
1617170400
1617204600
